param set_len = 36;
param target_sum = 7523726606;
param values := [1] 46673779 [2] 322385475 [3] 347348083 [4] 623198353 [5] 573088076 [6] 356532149 [7] 268839616 [8] 883583201 [9] 14325622 [10] 345348498 [11] 991011465 [12] 635294550 [13] 118077522 [14] 201548435 [15] 551013000 [16] 118683956 [17] 42006224 [18] 395040687 [19] 670752116 [20] 995827355 [21] 524283554 [22] 844140040 [23] 229647160 [24] 449054002 [25] 338616974 [26] 293799233 [27] 922893750 [28] 729337303 [29] 101752780 [30] 102342007 [31] 658938352 [32] 770235325 [33] 384157353 [34] 79303060 [35] 263021439 [36] 820063522 ;
